(set-info :origin "SVCOMP13 benchmarks generated by Arie Gurfinkel")
(set-info :status unsat)
(set-logic HORN)
(declare-fun cp-rel-bb6.i.i () Bool)
(declare-fun cp-rel-bb.i.i.i
             (Real Real Real Real Real Real Real Real Real Real Real)
             Bool)
(declare-fun cp-rel-entry () Bool)
(declare-fun cp-rel-__UFO__0
             (Real Real Real Real Real Real Real Real Real Real)
             Bool)
(assert |cp-rel-entry|)
(assert (forall ((?A Real) (?B Real) (?C Real) (?D Real) (?E Real) (?F Real) (?G Real) (?H Real) (?I Real) (?J Real) (?K Real) (?L Bool) )(let (($x341162 (|cp-rel-bb.i.i.i| ?A ?B ?C ?D ?E ?F ?G ?H ?I ?J ?K)))
(let (($x191384 (= ?L true)))
(let (($x361181 (and |cp-rel-entry| (<= ?K 0.0) (>= ?J 1.0) (<= ?J 1.0) (>= ?I 1.0) (<= ?I 1.0) (>= ?H 0.0) (<= ?H 0.0) (>= ?G 0.0) (<= ?G 0.0) (>= ?F 0.0) (<= ?F 0.0) (>= ?E 1.0) (<= ?E 1.0) (>= ?D 1.0) (<= ?D 1.0) (>= ?C 0.0) (<= ?C 0.0) (>= ?B 0.0) (<= ?B 0.0) (>= ?A 0.0) (<= ?A 0.0) $x191384 (>= ?K 0.0))))
(=> $x361181 $x341162)))))
)
(assert (forall ((?A Real) (?B Real) (?C Real) (?D Real) (?E Real) (?F Real) (?G Real) (?H Real) (?I Real) (?J Real) (?K Real) (?L Real) (?M Real) (?N Real) (?O Real) (?P Real) (?Q Real) (?R Real) (?S Real) (?T Real) (?U Real) (?V Real) (?W Bool) (?X Bool) (?Y Bool) (?Z Bool) (?A1 Bool) (?B1 Bool) (?C1 Bool) (?D1 Bool) (?E1 Bool) (?F1 Bool) (?G1 Bool) (?H1 Bool) (?I1 Bool) (?J1 Bool) (?K1 Bool) (?L1 Bool) (?M1 Bool) (?N1 Bool) (?O1 Bool) (?P1 Bool) (?Q1 Bool) (?R1 Bool) (?S1 Bool) (?T1 Bool) (?U1 Bool) (?V1 Bool) (?W1 Bool) (?X1 Bool) (?Y1 Bool) (?Z1 Bool) (?A2 Bool) (?B2 Bool) (?C2 Bool) (?D2 Real) (?E2 Bool) (?F2 Bool) (?G2 Bool) (?H2 Bool) (?I2 Bool) (?J2 Bool) (?K2 Bool) (?L2 Bool) (?M2 Bool) (?N2 Bool) (?O2 Bool) (?P2 Bool) (?Q2 Bool) (?R2 Bool) (?S2 Bool) (?T2 Real) (?U2 Bool) (?V2 Bool) (?W2 Bool) (?X2 Bool) (?Y2 Bool) (?Z2 Bool) (?A3 Bool) (?B3 Bool) (?C3 Bool) (?D3 Bool) (?E3 Bool) (?F3 Bool) (?G3 Bool) (?H3 Bool) (?I3 Bool) (?J3 Bool) (?K3 Bool) (?L3 Bool) (?M3 Bool) (?N3 Bool) (?O3 Bool) (?P3 Bool) (?Q3 Bool) (?R3 Bool) (?S3 Bool) (?T3 Real) (?U3 Bool) (?V3 Bool) (?W3 Bool) (?X3 Bool) (?Y3 Bool) (?Z3 Bool) (?A4 Bool) (?B4 Bool) (?C4 Bool) (?D4 Bool) (?E4 Bool) (?F4 Bool) (?G4 Bool) (?H4 Bool) (?I4 Bool) (?J4 Bool) (?K4 Bool) (?L4 Bool) (?M4 Bool) (?N4 Bool) (?O4 Bool) (?P4 Bool) (?Q4 Bool) (?R4 Bool) (?S4 Real) (?T4 Bool) (?U4 Bool) (?V4 Bool) (?W4 Bool) (?X4 Bool) (?Y4 Bool) (?Z4 Bool) (?A5 Bool) (?B5 Bool) (?C5 Bool) (?D5 Bool) (?E5 Bool) (?F5 Bool) (?G5 Bool) (?H5 Bool) (?I5 Bool) (?J5 Bool) (?K5 Bool) (?L5 Bool) (?M5 Bool) (?N5 Bool) (?O5 Bool) (?P5 Bool) (?Q5 Bool) (?R5 Bool) (?S5 Bool) (?T5 Bool) (?U5 Bool) (?V5 Bool) (?W5 Bool) (?X5 Bool) (?Y5 Bool) (?Z5 Bool) (?A6 Bool) (?B6 Bool) (?C6 Bool) (?D6 Bool) (?E6 Bool) (?F6 Bool) (?G6 Bool) (?H6 Bool) (?I6 Bool) (?J6 Bool) (?K6 Bool) (?L6 Bool) (?M6 Bool) (?N6 Bool) (?O6 Bool) (?P6 Bool) (?Q6 Bool) (?R6 Bool) (?S6 Bool) (?T6 Bool) (?U6 Bool) (?V6 Bool) (?W6 Bool) (?X6 Real) (?Y6 Bool) (?Z6 Bool) (?A7 Bool) (?B7 Bool) (?C7 Bool) (?D7 Bool) (?E7 Bool) (?F7 Bool) (?G7 Bool) (?H7 Bool) (?I7 Bool) (?J7 Bool) (?K7 Bool) (?L7 Bool) (?M7 Bool) (?N7 Bool) (?O7 Bool) (?P7 Bool) (?Q7 Bool) (?R7 Bool) (?S7 Bool) (?T7 Bool) (?U7 Bool) (?V7 Bool) (?W7 Bool) (?X7 Bool) (?Y7 Bool) (?Z7 Bool) (?A8 Bool) (?B8 Bool) (?C8 Bool) (?D8 Bool) (?E8 Bool) (?F8 Bool) (?G8 Bool) (?H8 Bool) (?I8 Bool) (?J8 Bool) (?K8 Bool) (?L8 Real) (?M8 Bool) (?N8 Bool) (?O8 Bool) (?P8 Bool) (?Q8 Bool) (?R8 Bool) (?S8 Bool) (?T8 Bool) (?U8 Bool) (?V8 Bool) (?W8 Bool) (?X8 Bool) (?Y8 Bool) (?Z8 Bool) (?A9 Bool) (?B9 Real) (?C9 Real) (?D9 Real) (?E9 Real) (?F9 Real) (?G9 Real) (?H9 Real) (?I9 Real) (?J9 Real) (?K9 Bool) (?L9 Real) (?M9 Real) (?N9 Real) (?O9 Bool) (?P9 Bool) (?Q9 Bool) (?R9 Bool) (?S9 Bool) (?T9 Bool) (?U9 Bool) (?V9 Bool) (?W9 Bool) (?X9 Bool) (?Y9 Bool) (?Z9 Bool) (?A10 Bool) (?B10 Bool) (?C10 Bool) (?D10 Bool) (?E10 Bool) (?F10 Bool) (?G10 Bool) (?H10 Bool) (?I10 Bool) (?J10 Bool) (?K10 Bool) (?L10 Bool) (?M10 Bool) (?N10 Bool) (?O10 Bool) (?P10 Bool) (?Q10 Bool) (?R10 Bool) (?S10 Bool) (?T10 Bool) (?U10 Bool) (?V10 Bool) (?W10 Bool) (?X10 Bool) (?Y10 Bool) (?Z10 Bool) (?A11 Bool) (?B11 Bool) (?C11 Bool) (?D11 Bool) (?E11 Bool) (?F11 Bool) (?G11 Real) (?H11 Real) (?I11 Real) (?J11 Real) (?K11 Real) (?L11 Real) (?M11 Real) (?N11 Real) (?O11 Real) (?P11 Bool) (?Q11 Real) (?R11 Real) (?S11 Real) (?T11 Bool) (?U11 Bool) (?V11 Bool) (?W11 Bool) (?X11 Bool) (?Y11 Bool) (?Z11 Bool) (?A12 Bool) (?B12 Bool) (?C12 Bool) (?D12 Bool) (?E12 Real) (?F12 Bool) (?G12 Bool) (?H12 Bool) (?I12 Bool) (?J12 Bool) (?K12 Bool) (?L12 Bool) (?M12 Bool) (?N12 Bool) (?O12 Bool) (?P12 Bool) (?Q12 Bool) (?R12 Bool) (?S12 Bool) (?T12 Bool) (?U12 Bool) (?V12 Bool) (?W12 Bool) (?X12 Bool) (?Y12 Bool) (?Z12 Bool) (?A13 Bool) (?B13 Bool) (?C13 Bool) (?D13 Bool) (?E13 Bool) (?F13 Bool) (?G13 Bool) (?H13 Bool) (?I13 Bool) (?J13 Bool) (?K13 Bool) (?L13 Bool) (?M13 Bool) (?N13 Bool) (?O13 Bool) (?P13 Bool) (?Q13 Bool) (?R13 Real) (?S13 Bool) (?T13 Bool) (?U13 Bool) (?V13 Bool) (?W13 Bool) (?X13 Bool) (?Y13 Bool) (?Z13 Bool) (?A14 Bool) (?B14 Bool) (?C14 Bool) (?D14 Bool) (?E14 Bool) (?F14 Bool) (?G14 Bool) (?H14 Bool) (?I14 Bool) (?J14 Bool) (?K14 Bool) (?L14 Bool) (?M14 Bool) (?N14 Bool) (?O14 Bool) (?P14 Bool) (?Q14 Bool) (?R14 Bool) (?S14 Bool) (?T14 Bool) (?U14 Bool) (?V14 Bool) (?W14 Bool) (?X14 Bool) (?Y14 Bool) (?Z14 Bool) (?A15 Bool) (?B15 Bool) (?C15 Bool) (?D15 Bool) (?E15 Bool) (?F15 Bool) (?G15 Bool) (?H15 Bool) (?I15 Bool) (?J15 Bool) (?K15 Bool) (?L15 Real) (?M15 Bool) (?N15 Bool) (?O15 Bool) (?P15 Bool) (?Q15 Bool) (?R15 Real) (?S15 Bool) (?T15 Real) (?U15 Bool) (?V15 Bool) (?W15 Bool) (?X15 Bool) (?Y15 Bool) (?Z15 Bool) (?A16 Bool) (?B16 Bool) (?C16 Bool) (?D16 Bool) (?E16 Bool) (?F16 Bool) (?G16 Bool) (?H16 Bool) (?I16 Bool) (?J16 Bool) (?K16 Real) (?L16 Bool) (?M16 Bool) (?N16 Bool) (?O16 Bool) (?P16 Bool) (?Q16 Real) (?R16 Bool) (?S16 Real) (?T16 Bool) (?U16 Bool) (?V16 Bool) (?W16 Bool) (?X16 Real) (?Y16 Real) (?Z16 Real) (?A17 Real) (?B17 Real) (?C17 Real) (?D17 Real) (?E17 Real) (?F17 Real) (?G17 Real) (?H17 Real) (?I17 Real) (?J17 Bool) (?K17 Real) (?L17 Bool) (?M17 Real) (?N17 Bool) (?O17 Real) (?P17 Bool) (?Q17 Bool) (?R17 Real) (?S17 Real) (?T17 Bool) (?U17 Real) (?V17 Bool) (?W17 Real) (?X17 Bool) (?Y17 Real) (?Z17 Bool) (?A18 Bool) (?B18 Real) (?C18 Real) (?D18 Bool) (?E18 Bool) (?F18 Bool) (?G18 Bool) (?H18 Real) (?I18 Real) (?J18 Bool) (?K18 Bool) (?L18 Bool) (?M18 Real) (?N18 Bool) (?O18 Bool) (?P18 Bool) (?Q18 Bool) (?R18 Real) (?S18 Bool) (?T18 Bool) (?U18 Bool) (?V18 Real) (?W18 Bool) (?X18 Bool) (?Y18 Bool) (?Z18 Bool) (?A19 Real) (?B19 Bool) (?C19 Bool) (?D19 Bool) (?E19 Bool) (?F19 Bool) (?G19 Bool) (?H19 Bool) (?I19 Bool) (?J19 Bool) (?K19 Bool) (?L19 Bool) (?M19 Bool) (?N19 Bool) (?O19 Real) (?P19 Bool) (?Q19 Bool) (?R19 Bool) (?S19 Bool) (?T19 Bool) (?U19 Real) (?V19 Bool) (?W19 Real) (?X19 Bool) (?Y19 Real) (?Z19 Bool) (?A20 Real) (?B20 Bool) (?C20 Real) (?D20 Bool) (?E20 Bool) (?F20 Bool) (?G20 Bool) (?H20 Bool) )(let (($x476573 (|cp-rel-bb.i.i.i| ?L ?M ?N ?O ?P ?Q ?R ?S ?T ?U ?V)))
(let (($x325021 (or (not ?A2) (and ?I1 ?B2 ?C2 (<= ?D2 0.0) (>= ?D2 0.0)) (and ?Q1 ?E2 ?F2 (<= ?D2 ?I) (>= ?D2 ?I)) (and ?T1 ?G2 (not ?H2) (<= ?D2 0.0) (>= ?D2 0.0)))))
(let (($x287363 (or (not ?A2) (and ?B2 (not ?E2) (not ?G2)) (and ?E2 (not ?B2) (not ?G2)) (and ?G2 (not ?B2) (not ?E2)))))
(let (($x343336 (or (not ?Q2) (and ?V1 ?R2 ?S2 (<= ?T2 0.0) (>= ?T2 0.0)) (and ?I2 ?U2 ?V2 (<= ?T2 ?I) (>= ?T2 ?I)) (and ?L2 ?W2 (not ?X2) (<= ?T2 0.0) (>= ?T2 0.0)))))
(let (($x436683 (or (not ?Q2) (and ?R2 (not ?U2) (not ?W2)) (and ?U2 (not ?R2) (not ?W2)) (and ?W2 (not ?R2) (not ?U2)))))
(let (($x194627 (or (not ?Q3) (and ?Y2 ?R3 (not ?S3) (<= ?T3 0.0) (>= ?T3 0.0)) (and ?G3 ?U3 ?V3 (<= ?T3 ?G) (>= ?T3 ?G)) (and ?J3 ?W3 ?X3 (<= ?T3 0.0) (>= ?T3 0.0)))))
(let (($x254820 (or (not ?Q3) (and ?R3 (not ?U3) (not ?W3)) (and ?U3 (not ?R3) (not ?W3)) (and ?W3 (not ?R3) (not ?U3)))))
(let (($x487471 (or (not ?D4) (and ?Q3 ?E4 ?F4) (and ?Y2 ?G4 ?S3) (and ?G3 ?H4 (not ?V3)) (and ?J3 ?I4 (not ?X3)) (and ?I1 ?J4 (not ?C2)) (and ?Q1 ?K4 (not ?F2)) (and ?T1 ?L4 ?H2))))
(let (($x360103 (not ?K4)))
(let (($x453134 (not ?J4)))
(let (($x288116 (not ?I4)))
(let (($x333882 (not ?H4)))
(let (($x223098 (not ?G4)))
(let (($x258321 (not ?E4)))
(let (($x361713 (or (not ?D4) (and ?E4 $x223098 $x333882 $x288116 $x453134 $x360103 (not ?L4)) (and ?G4 $x258321 $x333882 $x288116 $x453134 $x360103 (not ?L4)) (and ?H4 $x258321 $x223098 $x288116 $x453134 $x360103 (not ?L4)) (and ?I4 $x258321 $x223098 $x333882 $x453134 $x360103 (not ?L4)) (and ?J4 $x258321 $x223098 $x333882 $x288116 $x360103 (not ?L4)) (and ?K4 $x258321 $x223098 $x333882 $x288116 $x453134 (not ?L4)) (and ?L4 $x258321 $x223098 $x333882 $x288116 $x453134 $x360103))))
(let (($x381391 (or (not ?M4) (and ?Q3 ?N4 (not ?F4)) (and ?A2 ?O4 (not ?P2)))))
(let (($x167257 (or (not ?P4) (and ?L3 ?Q4 (not ?R4) (<= ?S4 0.0) (>= ?S4 0.0)) (and ?Y3 ?T4 ?U4 (<= ?S4 ?G) (>= ?S4 ?G)) (and ?B4 ?V4 ?W4 (<= ?S4 0.0) (>= ?S4 0.0)))))
(let (($x425741 (or (not ?P4) (and ?Q4 (not ?T4) (not ?V4)) (and ?T4 (not ?Q4) (not ?V4)) (and ?V4 (not ?Q4) (not ?T4)))))
(let (($x468008 (or (not ?H5) (and ?P4 ?I5 ?J5) (and ?L3 ?K5 ?R4) (and ?Y3 ?L5 (not ?U4)) (and ?B4 ?M5 (not ?W4)) (and ?V1 ?N5 (not ?S2)) (and ?I2 ?O5 (not ?V2)) (and ?L2 ?P5 ?X2))))
(let (($x472072 (not ?O5)))
(let (($x209114 (not ?N5)))
(let (($x103122 (not ?M5)))
(let (($x167661 (not ?L5)))
(let (($x240632 (not ?K5)))
(let (($x170012 (not ?I5)))
(let (($x265963 (or (not ?H5) (and ?I5 $x240632 $x167661 $x103122 $x209114 $x472072 (not ?P5)) (and ?K5 $x170012 $x167661 $x103122 $x209114 $x472072 (not ?P5)) (and ?L5 $x170012 $x240632 $x103122 $x209114 $x472072 (not ?P5)) (and ?M5 $x170012 $x240632 $x167661 $x209114 $x472072 (not ?P5)) (and ?N5 $x170012 $x240632 $x167661 $x103122 $x472072 (not ?P5)) (and ?O5 $x170012 $x240632 $x167661 $x103122 $x209114 (not ?P5)) (and ?P5 $x170012 $x240632 $x167661 $x103122 $x209114 $x472072))))
(let (($x489021 (or (not ?Q5) (and ?P4 ?R5 (not ?J5)) (and ?Q2 ?S5 (not ?F3)))))
(let (($x255197 (or (not ?U6) (and ?C5 ?V6 ?W6 (<= ?X6 0.0) (>= ?X6 0.0)) (and ?Z5 ?Y6 ?Z6 (<= ?X6 ?J) (>= ?X6 ?J)) (and ?C6 ?A7 (not ?B7) (<= ?X6 0.0) (>= ?X6 0.0)))))
(let (($x155877 (or (not ?U6) (and ?V6 (not ?Y6) (not ?A7)) (and ?Y6 (not ?V6) (not ?A7)) (and ?A7 (not ?V6) (not ?Y6)))))
(let (($x295578 (or (not ?N7) (and ?R6 ?O7 ?P7) (and ?A5 ?Q7 ?Y5) (and ?O6 ?R7 ?S7) (and ?X4 ?T7 ?V5))))
(let (($x159620 (or (not ?N7) (and ?O7 (not ?Q7) (not ?R7) (not ?T7)) (and ?Q7 (not ?O7) (not ?R7) (not ?T7)) (and ?R7 (not ?O7) (not ?Q7) (not ?T7)) (and ?T7 (not ?O7) (not ?Q7) (not ?R7)))))
(let (($x323262 (or (not ?U7) (and ?R6 ?V7 (not ?P7)) (and ?W5 ?W7 (not ?T6)) (and ?O6 ?X7 (not ?S7)) (and ?T5 ?Y7 (not ?Q6)))))
(let (($x281306 (or (not ?U7) (and ?V7 (not ?W7) (not ?X7) (not ?Y7)) (and ?W7 (not ?V7) (not ?X7) (not ?Y7)) (and ?X7 (not ?V7) (not ?W7) (not ?Y7)) (and ?Y7 (not ?V7) (not ?W7) (not ?X7)))))
(let (($x385943 (or (not ?I8) (and ?J6 ?J8 ?K8 (<= ?L8 0.0) (>= ?L8 0.0)) (and ?I7 ?M8 ?N8 (<= ?L8 ?J) (>= ?L8 ?J)) (and ?L7 ?O8 (not ?P8) (<= ?L8 0.0) (>= ?L8 0.0)))))
(let (($x266291 (or (not ?I8) (and ?J8 (not ?M8) (not ?O8)) (and ?M8 (not ?J8) (not ?O8)) (and ?O8 (not ?J8) (not ?M8)))))
(let (($x177547 (>= ?J9 ?K)))
(let (($x348347 (<= ?J9 ?K)))
(let (($x409419 (>= ?H9 ?J)))
(let (($x107909 (<= ?H9 ?J)))
(let (($x424983 (>= ?F9 ?I)))
(let (($x285011 (<= ?F9 ?I)))
(let (($x345165 (>= ?E9 ?N9)))
(let (($x454174 (<= ?E9 ?N9)))
(let (($x482577 (>= ?D9 ?M9)))
(let (($x294956 (<= ?D9 ?M9)))
(let (($x351760 (>= ?B9 ?L9)))
(let (($x181504 (<= ?B9 ?L9)))
(let (($x453469 (and ?C6 ?Q9 ?B7 $x181504 $x351760 $x294956 $x482577 $x454174 $x345165 $x285011 $x424983 $x107909 $x409419 $x348347 $x177547)))
(let (($x261303 (and ?Z5 ?P9 (not ?Z6) $x181504 $x351760 $x294956 $x482577 $x454174 $x345165 $x285011 $x424983 $x107909 $x409419 $x348347 $x177547)))
(let (($x300934 (and ?C5 ?O9 (not ?W6) $x181504 $x351760 $x294956 $x482577 $x454174 $x345165 $x285011 $x424983 $x107909 $x409419 $x348347 $x177547)))
(let (($x276184 (and ?U6 ?K9 ?B8 $x181504 $x351760 $x294956 $x482577 $x454174 $x345165 $x285011 $x424983 $x107909 $x409419 $x348347 $x177547)))
(let (($x174997 (and ?Z7 ?A9 (<= ?B9 ?C9) (>= ?B9 ?C9) (<= ?D9 1.0) (>= ?D9 1.0) (<= ?E9 1.0) (>= ?E9 1.0) (<= ?F9 ?G9) (>= ?F9 ?G9) (<= ?H9 ?I9) (>= ?H9 ?I9) (<= ?J9 1.0) (>= ?J9 1.0))))
(let (($x356737 (or (not ?Z8) (and ?A9 (not ?K9) (not ?O9) (not ?P9) (not ?Q9)) (and ?K9 (not ?A9) (not ?O9) (not ?P9) (not ?Q9)) (and ?O9 (not ?A9) (not ?K9) (not ?P9) (not ?Q9)) (and ?P9 (not ?A9) (not ?K9) (not ?O9) (not ?Q9)) (and ?Q9 (not ?A9) (not ?K9) (not ?O9) (not ?P9)))))
(let (($x401274 (or (not ?R9) (and ?F8 ?S9 ?T9) (and ?H6 ?U9 ?H7) (and ?C8 ?V9 ?W9) (and ?E6 ?X9 ?E7))))
(let (($x345824 (or (not ?R9) (and ?S9 (not ?U9) (not ?V9) (not ?X9)) (and ?U9 (not ?S9) (not ?V9) (not ?X9)) (and ?V9 (not ?S9) (not ?U9) (not ?X9)) (and ?X9 (not ?S9) (not ?U9) (not ?V9)))))
(let (($x477690 (or (not ?Y9) (and ?F8 ?Z9 (not ?T9)) (and ?F7 ?A10 (not ?H8)) (and ?C8 ?B10 (not ?W9)) (and ?C7 ?C10 (not ?E8)))))
(let (($x460151 (or (not ?Y9) (and ?Z9 (not ?A10) (not ?B10) (not ?C10)) (and ?A10 (not ?Z9) (not ?B10) (not ?C10)) (and ?B10 (not ?Z9) (not ?A10) (not ?C10)) (and ?C10 (not ?Z9) (not ?A10) (not ?B10)))))
(let (($x291973 (>= ?O11 ?K)))
(let (($x378624 (<= ?O11 ?K)))
(let (($x306586 (>= ?M11 ?J)))
(let (($x404528 (<= ?M11 ?J)))
(let (($x212295 (>= ?K11 ?I)))
(let (($x307314 (<= ?K11 ?I)))
(let (($x300506 (>= ?J11 ?S11)))
(let (($x282264 (<= ?J11 ?S11)))
(let (($x213999 (>= ?I11 ?R11)))
(let (($x484667 (<= ?I11 ?R11)))
(let (($x384461 (>= ?G11 ?Q11)))
(let (($x310148 (<= ?G11 ?Q11)))
(let (($x271039 (and ?L7 ?V11 ?P8 $x310148 $x384461 $x484667 $x213999 $x282264 $x300506 $x307314 $x212295 $x404528 $x306586 $x378624 $x291973)))
(let (($x147461 (and ?I7 ?U11 (not ?N8) $x310148 $x384461 $x484667 $x213999 $x282264 $x300506 $x307314 $x212295 $x404528 $x306586 $x378624 $x291973)))
(let (($x245952 (and ?J6 ?T11 (not ?K8) $x310148 $x384461 $x484667 $x213999 $x282264 $x300506 $x307314 $x212295 $x404528 $x306586 $x378624 $x291973)))
(let (($x349678 (and ?I8 ?P11 ?F10 $x310148 $x384461 $x484667 $x213999 $x282264 $x300506 $x307314 $x212295 $x404528 $x306586 $x378624 $x291973)))
(let (($x418398 (and ?D10 ?F11 (<= ?G11 ?H11) (>= ?G11 ?H11) (<= ?I11 1.0) (>= ?I11 1.0) (<= ?J11 1.0) (>= ?J11 1.0) (<= ?K11 ?L11) (>= ?K11 ?L11) (<= ?M11 ?N11) (>= ?M11 ?N11) (<= ?O11 1.0) (>= ?O11 1.0))))
(let (($x320624 (or (not ?E11) (and ?F11 (not ?P11) (not ?T11) (not ?U11) (not ?V11)) (and ?P11 (not ?F11) (not ?T11) (not ?U11) (not ?V11)) (and ?T11 (not ?F11) (not ?P11) (not ?U11) (not ?V11)) (and ?U11 (not ?F11) (not ?P11) (not ?T11) (not ?V11)) (and ?V11 (not ?F11) (not ?P11) (not ?T11) (not ?U11)))))
(let (($x269045 (or (not ?C12) (and ?P10 ?D12 (<= ?E12 1.0) (>= ?E12 1.0)) (and ?X8 ?F12 (not ?R10) (<= ?E12 ?D) (>= ?E12 ?D)) (and ?M10 ?G12 (<= ?E12 0.0) (>= ?E12 0.0)) (and ?V8 ?H12 (not ?O10) (<= ?E12 ?D) (>= ?E12 ?D)))))
(let (($x104386 (or (not ?C12) (and ?D12 (not ?F12) (not ?G12) (not ?H12)) (and ?F12 (not ?D12) (not ?G12) (not ?H12)) (and ?G12 (not ?D12) (not ?F12) (not ?H12)) (and ?H12 (not ?D12) (not ?F12) (not ?G12)))))
(let (($x179837 (or (not ?X12) (and ?Z11 ?Y12 ?Z12) (and ?T8 ?A13 ?L10) (and ?W11 ?B13 ?C13) (and ?Q8 ?D13 ?I10))))
(let (($x123710 (or (not ?X12) (and ?Y12 (not ?A13) (not ?B13) (not ?D13)) (and ?A13 (not ?Y12) (not ?B13) (not ?D13)) (and ?B13 (not ?Y12) (not ?A13) (not ?D13)) (and ?D13 (not ?Y12) (not ?A13) (not ?B13)))))
(let (($x457189 (or (not ?E13) (and ?Z11 ?F13 (not ?Z12)) (and ?J10 ?G13 (not ?B12)) (and ?W11 ?H13 (not ?C13)) (and ?G10 ?I13 (not ?Y11)))))
(let (($x152425 (or (not ?E13) (and ?F13 (not ?G13) (not ?H13) (not ?I13)) (and ?G13 (not ?F13) (not ?H13) (not ?I13)) (and ?H13 (not ?F13) (not ?G13) (not ?I13)) (and ?I13 (not ?F13) (not ?G13) (not ?H13)))))
(let (($x365197 (or (not ?P13) (and ?R12 ?Q13 (<= ?R13 1.0) (>= ?R13 1.0)) (and ?C11 ?S13 (not ?T12) (<= ?R13 ?D) (>= ?R13 ?D)) (and ?O12 ?T13 (<= ?R13 0.0) (>= ?R13 0.0)) (and ?A11 ?U13 (not ?Q12) (<= ?R13 ?D) (>= ?R13 ?D)))))
(let (($x177075 (or (not ?P13) (and ?Q13 (not ?S13) (not ?T13) (not ?U13)) (and ?S13 (not ?Q13) (not ?T13) (not ?U13)) (and ?T13 (not ?Q13) (not ?S13) (not ?U13)) (and ?U13 (not ?Q13) (not ?S13) (not ?T13)))))
(let (($x392323 (or (not ?D14) (and ?M13 ?E14 ?F14) (and ?Y10 ?G14 ?N12) (and ?J13 ?H14 ?I14) (and ?V10 ?J14 ?K12))))
(let (($x244642 (or (not ?D14) (and ?E14 (not ?G14) (not ?H14) (not ?J14)) (and ?G14 (not ?E14) (not ?H14) (not ?J14)) (and ?H14 (not ?E14) (not ?G14) (not ?J14)) (and ?J14 (not ?E14) (not ?G14) (not ?H14)))))
(let (($x303503 (or (not ?K14) (and ?M13 ?L14 (not ?F14)) (and ?L12 ?M14 (not ?O13)) (and ?J13 ?N14 (not ?I14)) (and ?I12 ?O14 (not ?L13)))))
(let (($x451993 (or (not ?K14) (and ?L14 (not ?M14) (not ?N14) (not ?O14)) (and ?M14 (not ?L14) (not ?N14) (not ?O14)) (and ?N14 (not ?L14) (not ?M14) (not ?O14)) (and ?O14 (not ?L14) (not ?M14) (not ?N14)))))
(let (($x488926 (or (not ?J15) (and ?S14 ?K15 (<= ?L15 1.0) (>= ?L15 1.0)) (and ?X13 ?M15 (not ?U14) (<= ?L15 ?D) (>= ?L15 ?D)) (and ?P14 ?N15 (<= ?L15 0.0) (>= ?L15 0.0)) (and ?V13 ?O15 (not ?R14) (<= ?L15 ?D) (>= ?L15 ?D)))))
(let (($x338251 (or (not ?J15) (and ?K15 (not ?M15) (not ?N15) (not ?O15)) (and ?M15 (not ?K15) (not ?N15) (not ?O15)) (and ?N15 (not ?K15) (not ?M15) (not ?O15)) (and ?O15 (not ?K15) (not ?M15) (not ?N15)))))
(let (($x117039 (or (not ?P15) (and ?Y14 ?Q15 (<= ?R15 1.0) (>= ?R15 1.0)) (and ?B14 ?S15 (not ?A15) (<= ?R15 ?T15) (>= ?R15 ?T15)) (and ?V14 ?U15 (<= ?R15 0.0) (>= ?R15 0.0)) (and ?Z13 ?V15 (not ?X14) (<= ?R15 ?T15) (>= ?R15 ?T15)))))
(let (($x341061 (or (not ?P15) (and ?Q15 (not ?S15) (not ?U15) (not ?V15)) (and ?S15 (not ?Q15) (not ?U15) (not ?V15)) (and ?U15 (not ?Q15) (not ?S15) (not ?V15)) (and ?V15 (not ?Q15) (not ?S15) (not ?U15)))))
(let (($x176490 (or (not ?I16) (and ?Z15 ?J16 (<= ?K16 1.0) (>= ?K16 1.0)) (and ?D15 ?L16 (not ?B16) (<= ?K16 ?D) (>= ?K16 ?D)) (and ?W15 ?M16 (<= ?K16 0.0) (>= ?K16 0.0)) (and ?B15 ?N16 (not ?Y15) (<= ?K16 ?D) (>= ?K16 ?D)))))
(let (($x171853 (or (not ?I16) (and ?J16 (not ?L16) (not ?M16) (not ?N16)) (and ?L16 (not ?J16) (not ?M16) (not ?N16)) (and ?M16 (not ?J16) (not ?L16) (not ?N16)) (and ?N16 (not ?J16) (not ?L16) (not ?M16)))))
(let (($x283043 (or (not ?O16) (and ?F16 ?P16 (<= ?Q16 1.0) (>= ?Q16 1.0)) (and ?H15 ?R16 (not ?H16) (<= ?Q16 ?S16) (>= ?Q16 ?S16)) (and ?C16 ?T16 (<= ?Q16 0.0) (>= ?Q16 0.0)) (and ?F15 ?U16 (not ?E16) (<= ?Q16 ?S16) (>= ?Q16 ?S16)))))
(let (($x447144 (or (not ?O16) (and ?P16 (not ?R16) (not ?T16) (not ?U16)) (and ?R16 (not ?P16) (not ?T16) (not ?U16)) (and ?T16 (not ?P16) (not ?R16) (not ?U16)) (and ?U16 (not ?P16) (not ?R16) (not ?T16)))))
(let (($x116061 (>= ?I17 ?K)))
(let (($x401113 (<= ?I17 ?K)))
(let (($x375654 (>= ?H17 ?J)))
(let (($x330850 (<= ?H17 ?J)))
(let (($x451569 (>= ?G17 ?I)))
(let (($x117093 (<= ?G17 ?I)))
(let (($x271497 (>= ?F17 ?H)))
(let (($x175568 (<= ?F17 ?H)))
(let (($x416666 (>= ?E17 ?G)))
(let (($x475577 (<= ?E17 ?G)))
(let (($x192548 (>= ?A17 ?E)))
(let (($x435642 (<= ?A17 ?E)))
(let (($x487412 (>= ?Z16 ?D)))
(let (($x215050 (<= ?Z16 ?D)))
(let (($x478110 (>= ?X16 ?B)))
(let (($x252573 (<= ?X16 ?B)))
(let (($x476431 (and ?G1 ?A18 ?P1 $x252573 $x478110 (<= ?Y16 1.0) (>= ?Y16 1.0) $x215050 $x487412 $x435642 $x192548 (<= ?C17 ?F) (>= ?C17 ?F) $x475577 $x416666 $x175568 $x271497 $x117093 $x451569 $x330850 $x375654 $x401113 $x116061)))
(let (($x274126 (>= ?C17 1.0)))
(let (($x369506 (<= ?C17 1.0)))
(let (($x168370 (>= ?Y16 0.0)))
(let (($x376259 (<= ?Y16 0.0)))
(let (($x381835 (and ?E11 ?Z17 (not ?W12) (<= ?X16 ?G11) (>= ?X16 ?G11) $x376259 $x168370 $x215050 $x487412 $x435642 $x192548 $x369506 $x274126 (<= ?E17 ?I11) (>= ?E17 ?I11) (<= ?F17 ?J11) (>= ?F17 ?J11) (<= ?G17 ?Y17) (>= ?G17 ?Y17) (<= ?H17 ?M11) (>= ?H17 ?M11) (<= ?I17 ?O11) (>= ?I17 ?O11))))
(let (($x210230 (and ?U12 ?X17 (<= ?X16 ?G11) (>= ?X16 ?G11) $x376259 $x168370 $x215050 $x487412 $x435642 $x192548 $x369506 $x274126 (<= ?E17 0.0) (>= ?E17 0.0) (<= ?F17 ?J11) (>= ?F17 ?J11) (<= ?G17 ?Y17) (>= ?G17 ?Y17) (<= ?H17 ?M11) (>= ?H17 ?M11) (<= ?I17 ?O11) (>= ?I17 ?O11))))
(let (($x478762 (>= ?C17 ?S17)))
(let (($x308339 (<= ?C17 ?S17)))
(let (($x247802 (and ?P13 ?V17 $x252573 $x478110 $x376259 $x168370 (<= ?Z16 ?R13) (>= ?Z16 ?R13) (<= ?A17 ?W17) (>= ?A17 ?W17) $x308339 $x478762 $x475577 $x416666 $x175568 $x271497 $x117093 $x451569 $x330850 $x375654 $x401113 $x116061)))
(let (($x240735 (and ?O16 ?T17 $x252573 $x478110 $x376259 $x168370 (<= ?Z16 ?Q16) (>= ?Z16 ?Q16) (<= ?A17 ?U17) (>= ?A17 ?U17) $x308339 $x478762 $x475577 $x416666 $x175568 $x271497 $x117093 $x451569 $x330850 $x375654 $x401113 $x116061)))
(let (($x157592 (and ?I16 ?Q17 $x252573 $x478110 $x376259 $x168370 (<= ?Z16 ?K16) (>= ?Z16 ?K16) (<= ?A17 ?R17) (>= ?A17 ?R17) $x308339 $x478762 $x475577 $x416666 $x175568 $x271497 $x117093 $x451569 $x330850 $x375654 $x401113 $x116061)))
(let (($x321321 (and ?Z8 ?P17 (not ?U10) (<= ?X16 ?B9) (>= ?X16 ?B9) $x376259 $x168370 $x215050 $x487412 $x435642 $x192548 $x369506 $x274126 (<= ?E17 ?D9) (>= ?E17 ?D9) (<= ?F17 ?E9) (>= ?F17 ?E9) (<= ?G17 ?O17) (>= ?G17 ?O17) (<= ?H17 ?H9) (>= ?H17 ?H9) (<= ?I17 ?J9) (>= ?I17 ?J9))))
(let (($x348079 (and ?S10 ?N17 (<= ?X16 ?B9) (>= ?X16 ?B9) $x376259 $x168370 $x215050 $x487412 $x435642 $x192548 $x369506 $x274126 (<= ?E17 0.0) (>= ?E17 0.0) (<= ?F17 ?E9) (>= ?F17 ?E9) (<= ?G17 ?O17) (>= ?G17 ?O17) (<= ?H17 ?H9) (>= ?H17 ?H9) (<= ?I17 ?J9) (>= ?I17 ?J9))))
(let (($x403549 (>= ?C17 ?D17)))
(let (($x361876 (<= ?C17 ?D17)))
(let (($x195233 (and ?C12 ?L17 $x252573 $x478110 $x376259 $x168370 (<= ?Z16 ?E12) (>= ?Z16 ?E12) (<= ?A17 ?M17) (>= ?A17 ?M17) $x361876 $x403549 $x475577 $x416666 $x175568 $x271497 $x117093 $x451569 $x330850 $x375654 $x401113 $x116061)))
(let (($x474824 (and ?P15 ?J17 $x252573 $x478110 $x376259 $x168370 (<= ?Z16 ?R15) (>= ?Z16 ?R15) (<= ?A17 ?K17) (>= ?A17 ?K17) $x361876 $x403549 $x475577 $x416666 $x175568 $x271497 $x117093 $x451569 $x330850 $x375654 $x401113 $x116061)))
(let (($x327434 (and ?J15 ?W16 $x252573 $x478110 $x376259 $x168370 (<= ?Z16 ?L15) (>= ?Z16 ?L15) (<= ?A17 ?B17) (>= ?A17 ?B17) $x361876 $x403549 $x475577 $x416666 $x175568 $x271497 $x117093 $x451569 $x330850 $x375654 $x401113 $x116061)))
(let (($x234768 (or (not ?V16) $x327434 $x474824 $x195233 $x348079 $x321321 $x157592 $x240735 $x247802 $x210230 $x381835 $x476431)))
(let (($x301138 (not ?Z17)))
(let (($x301076 (not ?X17)))
(let (($x419567 (not ?V17)))
(let (($x269656 (not ?T17)))
(let (($x123915 (not ?Q17)))
(let (($x348728 (not ?P17)))
(let (($x285483 (not ?N17)))
(let (($x211142 (not ?L17)))
(let (($x223878 (not ?J17)))
(let (($x203962 (not ?W16)))
(let (($x314222 (or (not ?V16) (and ?W16 $x223878 $x211142 $x285483 $x348728 $x123915 $x269656 $x419567 $x301076 $x301138 (not ?A18)) (and ?J17 $x203962 $x211142 $x285483 $x348728 $x123915 $x269656 $x419567 $x301076 $x301138 (not ?A18)) (and ?L17 $x203962 $x223878 $x285483 $x348728 $x123915 $x269656 $x419567 $x301076 $x301138 (not ?A18)) (and ?N17 $x203962 $x223878 $x211142 $x348728 $x123915 $x269656 $x419567 $x301076 $x301138 (not ?A18)) (and ?P17 $x203962 $x223878 $x211142 $x285483 $x123915 $x269656 $x419567 $x301076 $x301138 (not ?A18)) (and ?Q17 $x203962 $x223878 $x211142 $x285483 $x348728 $x269656 $x419567 $x301076 $x301138 (not ?A18)) (and ?T17 $x203962 $x223878 $x211142 $x285483 $x348728 $x123915 $x419567 $x301076 $x301138 (not ?A18)) (and ?V17 $x203962 $x223878 $x211142 $x285483 $x348728 $x123915 $x269656 $x301076 $x301138 (not ?A18)) (and ?X17 $x203962 $x223878 $x211142 $x285483 $x348728 $x123915 $x269656 $x419567 $x301138 (not ?A18)) (and ?Z17 $x203962 $x223878 $x211142 $x285483 $x348728 $x123915 $x269656 $x419567 $x301076 (not ?A18)) (and ?A18 $x203962 $x223878 $x211142 $x285483 $x348728 $x123915 $x269656 $x419567 $x301076 $x301138))))
(let (($x119034 (|cp-rel-bb.i.i.i| ?A ?B ?C ?D ?E ?F ?G ?H ?I ?J ?K)))
(let (($x171849 (and $x119034 (= ?C18 (ite ?H20 ?I17 0.0)) (= ?H20 (or ?G20 ?F20)) (= ?G20 (or ?D20 ?E20)) (= ?F20 (= ?I17 0.0)) (= ?E20 (not (= ?A17 3.0))) (= ?D20 (= ?C17 0.0)) (= ?U17 (+ ?C20 ?E)) (= ?C20 (ite ?B20 1.0 (~ 1.0))) (= ?B20 (= ?Q16 1.0)) (= ?R17 (+ ?A20 ?E)) (= ?A20 (ite ?Z19 1.0 (~ 1.0))) (= ?Z19 (= ?K16 1.0)) (= ?K17 (+ ?Y19 ?E)) (= ?Y19 (ite ?X19 1.0 (~ 1.0))) (= ?X19 (= ?R15 1.0)) (= ?B17 (+ ?W19 ?E)) (= ?W19 (ite ?V19 1.0 (~ 1.0))) (= ?V19 (= ?L15 1.0)) (= ?H16 (= ?E 0.0)) (= ?E16 (= ?E 4.0)) (= ?B16 (= ?E 0.0)) (= ?Y15 (= ?E 4.0)) (= ?S16 (ite ?X10 1.0 0.0)) (= ?A15 (= ?E 0.0)) (= ?X14 (= ?E 4.0)) (= ?U14 (= ?E 0.0)) (= ?R14 (= ?E 4.0)) (= ?W17 (+ ?U19 ?E)) (= ?U19 (ite ?T19 1.0 (~ 1.0))) (= ?T19 (= ?R13 1.0)) (= ?F14 (or ?G18 ?S19)) (= ?S19 (not (<= 4.0 ?E))) (= ?I14 (or ?G18 ?R19)) (= ?R19 (not (<= ?E 2.0))) (= ?T15 (ite ?S8 1.0 0.0)) (= ?O13 (or ?F18 ?Q19)) (= ?Q19 (not (<= 2.0 ?E))) (= ?L13 (or ?F18 ?P19)) (= ?P19 (not (<= ?E 0.0))) (= ?M17 (+ ?O19 ?E)) (= ?O19 (ite ?N19 1.0 (~ 1.0))) (= ?N19 (= ?E12 1.0)) (= ?Z12 (or ?G18 ?M19)) (= ?M19 (not (<= 4.0 ?E))) (= ?C13 (or ?G18 ?L19)) (= ?L19 (not (<= ?E 2.0))) (= ?W12 (= ?E 3.0)) (= ?Y17 (ite ?K19 0.0 ?K11)) (= ?K19 (= ?E 1.0)) (= ?T12 (= ?E 0.0)) (= ?Q12 (= ?E 4.0)) (= ?N12 (= ?E 0.0)) (= ?K12 (= ?E 4.0)) (= ?B12 (or ?F18 ?J19)) (= ?J19 (not (<= 2.0 ?E))) (= ?Y11 (or ?F18 ?I19)) (= ?I19 (not (<= ?E 0.0))) (= ?H11 (+ 150.0 ?Q11)) (= ?L11 (ite ?H19 0.0 ?I)) (= ?H19 (= ?E 1.0)) (= ?N11 (ite ?G19 0.0 ?J)) (= ?G19 (= ?E 1.0)) (= ?X10 (= ?D 0.0)) (= ?U10 (= ?E 3.0)) (= ?O17 (ite ?F19 0.0 ?F9)) (= ?F19 (= ?E 1.0)) (= ?R10 (= ?E 0.0)) (= ?O10 (= ?E 4.0)) (= ?L10 (= ?E 0.0)) (= ?I10 (= ?E 4.0)) (= ?F10 (= ?L8 0.0)) (= ?T9 (or ?G18 ?E19)) (= ?E19 (not (<= 4.0 ?E))) (= ?W9 (or ?G18 ?D19)) (= ?D19 (not (<= ?E 2.0))) (= ?C9 (+ 150.0 ?L9)) (= ?G9 (ite ?C19 0.0 ?I)) (= ?C19 (= ?E 1.0)) (= ?I9 (ite ?B19 0.0 ?J)) (= ?B19 (= ?E 1.0)) (= ?S8 (= ?D 0.0)) (= ?P8 (not (<= ?A19 2.0))) (= ?A19 (+ (~ 2.0) ?E)) (= ?N8 (= ?E 1.0)) (= ?H8 (or ?F18 ?Z18)) (= ?Z18 (not (<= 2.0 ?E))) (= ?E8 (or ?F18 ?Y18)) (= ?Y18 (not (<= ?E 0.0))) (= ?B8 (= ?X6 0.0)) (= ?P7 (or ?G18 ?X18)) (= ?X18 (not (<= 4.0 ?E))) (= ?S7 (or ?G18 ?W18)) (= ?W18 (not (<= ?E 2.0))) (= ?K7 (not (<= 2.0 ?E))) (= ?K8 (= ?E 0.0)) (= ?H7 (= ?E 0.0)) (= ?E7 (= ?E 4.0)) (= ?B7 (not (<= ?V18 2.0))) (= ?V18 (+ (~ 2.0) ?E)) (= ?Z6 (= ?E 1.0)) (= ?T6 (or ?F18 ?U18)) (= ?U18 (not (<= 2.0 ?E))) (= ?Q6 (or ?F18 ?T18)) (= ?T18 (not (<= ?E 0.0))) (= ?L6 (not (<= 1.0 ?E))) (= ?S11 (ite ?S18 0.0 ?H)) (= ?R11 (ite ?S18 0.0 ?G)) (= ?Q11 (ite ?S18 ?R18 ?B)) (= ?S18 (and ?Q18 ?P18)) (= ?R18 (+ (~ 150.0) ?B)) (= ?Q18 (not (= ?H 0.0))) (= ?P18 (= ?E 3.0)) (= ?G6 (= ?D 1.0)) (= ?S17 (ite ?O18 0.0 ?F)) (= ?O18 (= ?F 1.0)) (= ?B6 (not (<= 2.0 ?E))) (= ?W6 (= ?E 0.0)) (= ?Y5 (= ?E 0.0)) (= ?V5 (= ?E 4.0)) (= ?J5 (= ?S4 0.0)) (= ?E5 (not (<= 1.0 ?E))) (= ?N9 (ite ?N18 0.0 ?H)) (= ?M9 (ite ?N18 0.0 ?G)) (= ?L9 (ite ?N18 ?M18 ?B)) (= ?N18 (and ?L18 ?K18)) (= ?M18 (+ (~ 150.0) ?B)) (= ?L18 (not (= ?H 0.0))) (= ?K18 (= ?E 3.0)) (= ?Z4 (= ?D 1.0)) (= ?D17 (ite ?J18 0.0 ?F)) (= ?J18 (= ?F 1.0)) (= ?W4 (= ?E 4.0)) (= ?U4 (= ?E 3.0)) (= ?F4 (= ?T3 0.0)) (= ?A4 (not (<= 4.0 ?E))) (= ?R4 (not (<= ?E 2.0))) (= ?X3 (= ?E 4.0)) (= ?V3 (= ?E 3.0)) (= ?N3 (not (<= 3.0 ?E))) (= ?I3 (not (<= 4.0 ?E))) (= ?S3 (not (<= ?E 2.0))) (= ?F3 (= ?T2 0.0)) (= ?A3 (not (<= 3.0 ?E))) (= ?X2 (not (<= ?I18 2.0))) (= ?I18 (+ (~ 2.0) ?E)) (= ?V2 (= ?E 1.0)) (= ?P2 (= ?D2 0.0)) (= ?K2 (not (<= 2.0 ?E))) (= ?S2 (= ?E 0.0)) (= ?H2 (not (<= ?H18 2.0))) (= ?H18 (+ (~ 2.0) ?E)) (= ?F2 (= ?E 1.0)) (= ?X1 (not (<= 1.0 ?E))) (= ?S1 (not (<= 2.0 ?E))) (= ?C2 (= ?E 0.0)) (= ?P1 (not (<= ?B 100.0))) (= ?K1 (not (<= 1.0 ?E))) (= ?F1 (= ?F 0.0)) (= ?C1 (and ?G18 ?F18)) (= ?G18 (= ?G 0.0)) (= ?F18 (= ?I 0.0)) (= ?Z (or ?E18 ?D18)) (= ?E18 (= ?C 1.0)) (= ?D18 (not (<= ?A 10.0))) (>= ?V ?C18) (<= ?V ?C18) (>= ?U ?H17) (<= ?U ?H17) (>= ?T ?G17) (<= ?T ?G17) (>= ?S ?F17) (<= ?S ?F17) (>= ?R ?E17) (<= ?R ?E17) (>= ?Q ?C17) (<= ?Q ?C17) (>= ?P ?A17) (<= ?P ?A17) (>= ?O ?Z16) (<= ?O ?Z16) (>= ?N ?Y16) (<= ?N ?Y16) (>= ?M ?X16) (<= ?M ?X16) (>= ?L ?B18) (<= ?L ?B18) (= ?V16 true) $x314222 $x234768 $x447144 $x283043 $x171853 $x176490 (or (not ?F16) ?G16) (or (not ?F16) (and ?H15 ?G16 ?H16)) (or (not ?C16) ?D16) (or (not ?C16) (and ?F15 ?D16 ?E16)) (or (not ?Z15) ?A16) (or (not ?Z15) (and ?D15 ?A16 ?B16)) (or (not ?W15) ?X15) (or (not ?W15) (and ?B15 ?X15 ?Y15)) $x341061 $x117039 $x338251 $x488926 (or (not ?H15) ?I15) (or (not ?H15) (and ?K14 ?I15 (not ?X10))) (or (not ?F15) ?G15) (or (not ?F15) (and ?K14 ?G15 ?X10)) (or (not ?D15) ?E15) (or (not ?D15) (and ?D14 ?E15 (not ?G6))) (or (not ?B15) ?C15) (or (not ?B15) (and ?D14 ?C15 ?G6)) (or (not ?Y14) ?Z14) (or (not ?Y14) (and ?B14 ?Z14 ?A15)) (or (not ?V14) ?W14) (or (not ?V14) (and ?Z13 ?W14 ?X14)) (or (not ?S14) ?T14) (or (not ?S14) (and ?X13 ?T14 ?U14)) (or (not ?P14) ?Q14) (or (not ?P14) (and ?V13 ?Q14 ?R14)) $x451993 $x303503 $x244642 $x392323 (or (not ?B14) ?C14) (or (not ?B14) (and ?E13 ?C14 (not ?S8))) (or (not ?Z13) ?A14) (or (not ?Z13) (and ?E13 ?A14 ?S8)) (or (not ?X13) ?Y13) (or (not ?X13) (and ?X12 ?Y13 (not ?Z4))) (or (not ?V13) ?W13) (or (not ?V13) (and ?X12 ?W13 ?Z4)) $x177075 $x365197 (or (not ?M13) ?N13) (or (not ?M13) (and ?L12 ?N13 ?O13)) (or (not ?J13) ?K13) (or (not ?J13) (and ?I12 ?K13 ?L13)) $x152425 $x457189 $x123710 $x179837 (or (not ?U12) ?V12) (or (not ?U12) (and ?E11 ?V12 ?W12)) (or (not ?R12) ?S12) (or (not ?R12) (and ?C11 ?S12 ?T12)) (or (not ?O12) ?P12) (or (not ?O12) (and ?A11 ?P12 ?Q12)) (or (not ?L12) ?M12) (or (not ?L12) (and ?Y10 ?M12 (not ?N12))) (or (not ?I12) ?J12) (or (not ?I12) (and ?V10 ?J12 (not ?K12))) $x104386 $x269045 (or (not ?Z11) ?A12) (or (not ?Z11) (and ?J10 ?A12 ?B12)) (or (not ?W11) ?X11) (or (not ?W11) (and ?G10 ?X11 ?Y11)) $x320624 (or (not ?E11) $x418398 $x349678 $x245952 $x147461 $x271039) (or (not ?C11) ?D11) (or (not ?C11) (and ?Y9 ?D11 (not ?G6))) (or (not ?A11) ?B11) (or (not ?A11) (and ?Y9 ?B11 ?G6)) (or (not ?Y10) ?Z10) (or (not ?Y10) (and ?R9 ?Z10 (not ?X10))) (or (not ?V10) ?W10) (or (not ?V10) (and ?R9 ?W10 ?X10)) (or (not ?S10) ?T10) (or (not ?S10) (and ?Z8 ?T10 ?U10)) (or (not ?P10) ?Q10) (or (not ?P10) (and ?X8 ?Q10 ?R10)) (or (not ?M10) ?N10) (or (not ?M10) (and ?V8 ?N10 ?O10)) (or (not ?J10) ?K10) (or (not ?J10) (and ?T8 ?K10 (not ?L10))) (or (not ?G10) ?H10) (or (not ?G10) (and ?Q8 ?H10 (not ?I10))) (or (not ?D10) ?E10) (or (not ?D10) (and ?I8 ?E10 (not ?F10))) $x460151 $x477690 $x345824 $x401274 $x356737 (or (not ?Z8) $x174997 $x276184 $x300934 $x261303 $x453469) (or (not ?X8) ?Y8) (or (not ?X8) (and ?U7 ?Y8 (not ?Z4))) (or (not ?V8) ?W8) (or (not ?V8) (and ?U7 ?W8 ?Z4)) (or (not ?T8) ?U8) (or (not ?T8) (and ?N7 ?U8 (not ?S8))) (or (not ?Q8) ?R8) (or (not ?Q8) (and ?N7 ?R8 ?S8)) $x266291 $x385943 (or (not ?F8) ?G8) (or (not ?F8) (and ?F7 ?G8 ?H8)) (or (not ?C8) ?D8) (or (not ?C8) (and ?C7 ?D8 ?E8)) (or (not ?Z7) ?A8) (or (not ?Z7) (and ?U6 ?A8 (not ?B8))) $x281306 $x323262 $x159620 $x295578 (or (not ?L7) ?M7) (or (not ?L7) (and ?M6 ?M7 (not ?K7))) (or (not ?I7) ?J7) (or (not ?I7) (and ?M6 ?J7 ?K7)) (or (not ?F7) ?G7) (or (not ?F7) (and ?H6 ?G7 (not ?H7))) (or (not ?C7) ?D7) (or (not ?C7) (and ?E6 ?D7 (not ?E7))) $x155877 $x255197 (or (not ?R6) ?S6) (or (not ?R6) (and ?W5 ?S6 ?T6)) (or (not ?O6) ?P6) (or (not ?O6) (and ?T5 ?P6 ?Q6)) (or (not ?M6) ?N6) (or (not ?M6) (and ?Q5 ?N6 (not ?L6))) (or (not ?J6) ?K6) (or (not ?J6) (and ?Q5 ?K6 ?L6)) (or (not ?H6) ?I6) (or (not ?H6) (and ?H5 ?I6 (not ?G6))) (or (not ?E6) ?F6) (or (not ?E6) (and ?H5 ?F6 ?G6)) (or (not ?C6) ?D6) (or (not ?C6) (and ?F5 ?D6 (not ?B6))) (or (not ?Z5) ?A6) (or (not ?Z5) (and ?F5 ?A6 ?B6)) (or (not ?W5) ?X5) (or (not ?W5) (and ?A5 ?X5 (not ?Y5))) (or (not ?T5) ?U5) (or (not ?T5) (and ?X4 ?U5 (not ?V5))) (or (not ?Q5) (and ?R5 (not ?S5)) (and ?S5 (not ?R5))) $x489021 $x265963 $x468008 (or (not ?F5) ?G5) (or (not ?F5) (and ?M4 ?G5 (not ?E5))) (or (not ?C5) ?D5) (or (not ?C5) (and ?M4 ?D5 ?E5)) (or (not ?A5) ?B5) (or (not ?A5) (and ?D4 ?B5 (not ?Z4))) (or (not ?X4) ?Y4) (or (not ?X4) (and ?D4 ?Y4 ?Z4)) $x425741 $x167257 (or (not ?M4) (and ?N4 (not ?O4)) (and ?O4 (not ?N4))) $x381391 $x361713 $x487471 (or (not ?B4) ?C4) (or (not ?B4) (and ?O3 ?C4 (not ?A4))) (or (not ?Y3) ?Z3) (or (not ?Y3) (and ?O3 ?Z3 ?A4)) $x254820 $x194627 (or (not ?O3) ?P3) (or (not ?O3) (and ?D3 ?P3 (not ?N3))) (or (not ?L3) ?M3) (or (not ?L3) (and ?D3 ?M3 ?N3)) (or (not ?J3) ?K3) (or (not ?J3) (and ?B3 ?K3 (not ?I3))) (or (not ?G3) ?H3) (or (not ?G3) (and ?B3 ?H3 ?I3)) (or (not ?D3) ?E3) (or (not ?D3) (and ?Q2 ?E3 ?F3)) (or (not ?B3) ?C3) (or (not ?B3) (and ?N2 ?C3 (not ?A3))) (or (not ?Y2) ?Z2) (or (not ?Y2) (and ?N2 ?Z2 ?A3)) $x436683 $x343336 (or (not ?N2) ?O2) (or (not ?N2) (and ?A2 ?O2 ?P2)) (or (not ?L2) ?M2) (or (not ?L2) (and ?Y1 ?M2 (not ?K2))) (or (not ?I2) ?J2) (or (not ?I2) (and ?Y1 ?J2 ?K2)) $x287363 $x325021 (or (not ?Y1) ?Z1) (or (not ?Y1) (and ?N1 ?Z1 (not ?X1))) (or (not ?V1) ?W1) (or (not ?V1) (and ?N1 ?W1 ?X1)) (or (not ?T1) ?U1) (or (not ?T1) (and ?L1 ?U1 (not ?S1))) (or (not ?Q1) ?R1) (or (not ?Q1) (and ?L1 ?R1 ?S1)) (or (not ?N1) ?O1) (or (not ?N1) (and ?G1 ?O1 (not ?P1))) (or (not ?L1) ?M1) (or (not ?L1) (and ?D1 ?M1 (not ?K1))) (or (not ?I1) ?J1) (or (not ?I1) (and ?D1 ?J1 ?K1)) (or (not ?G1) ?H1) (or (not ?G1) (and ?A1 ?H1 (not ?F1))) (or (not ?D1) ?E1) (or (not ?D1) (and ?A1 ?E1 ?F1)) (or (not ?A1) ?B1) (or (not ?A1) (and ?W ?B1 (not ?C1))) (or (not ?W) ?Y) (or (not ?W) (and ?X ?Y (not ?Z))) (= ?B18 (+ 1.0 ?A)))))
(=> $x171849 $x476573))))))))))))))))))))))))))))))))))))))))))))))))))))))))))))))))))))))))))))))))))))))))))))))))))))))))))))))))))))))))))))))))))))))))))))))))))
)
(assert (forall ((?A Real) (?B Real) (?C Real) (?D Real) (?E Real) (?F Real) (?G Real) (?H Real) (?I Real) (?J Real) (?K Real) (?L Bool) (?M Bool) (?N Bool) (?O Bool) (?P Bool) (?Q Bool) (?R Bool) (?S Bool) (?T Bool) (?U Bool) (?V Bool) (?W Bool) (?X Bool) )(let (($x190256 (= ?X (= ?K 0.0))))
(let (($x289266 (or (not ?L) (and ?M ?N (not ?O)))))
(let (($x144097 (or (not ?L) ?N)))
(let (($x101877 (or (not ?U) (and ?L ?V ?P) (and ?M ?W ?O))))
(let (($x388499 (or (not ?U) (and ?V (not ?W)) (and ?W (not ?V)))))
(let (($x311479 (= ?U true)))
(let (($x191384 (= ?X true)))
(let (($x396452 (= ?Q (not (<= ?A 10.0)))))
(let (($x441844 (= ?R (= ?C 1.0))))
(let (($x173621 (= ?O (or ?R ?Q))))
(let (($x300880 (= ?S (= ?I 0.0))))
(let (($x268772 (= ?T (= ?G 0.0))))
(let (($x199255 (= ?P (and ?T ?S))))
(let (($x195924 (|cp-rel-bb.i.i.i| ?A ?B ?C ?D ?E ?F ?G ?H ?I ?J ?K)))
(let (($x239825 (and $x195924 $x199255 $x268772 $x300880 $x173621 $x441844 $x396452 $x191384 $x311479 $x388499 $x101877 $x144097 $x289266 $x190256)))
(=> $x239825 (|cp-rel-__UFO__0| ?A ?B ?D ?E ?F ?G ?H ?I ?J ?K))))))))))))))))))
)
(assert (forall ((?A Real) (?B Real) (?C Real) (?D Real) (?E Real) (?F Real) (?G Real) (?H Real) (?I Real) (?J Real) (?K Bool) )(let (($x251766 (|cp-rel-__UFO__0| ?A ?B ?C ?D ?E ?F ?G ?H ?I ?J)))
(=> (and $x251766 (= ?K true)) $x251766)))
)
(assert (forall ((?A Real) (?B Real) (?C Real) (?D Real) (?E Real) (?F Real) (?G Real) (?H Real) (?I Real) (?J Real) (?K Real) (?L Bool) (?M Bool) (?N Bool) (?O Bool) (?P Bool) (?Q Bool) (?R Bool) (?S Bool) (?T Bool) (?U Bool) (?V Bool) (?W Bool) (?X Bool) )(let (($x190256 (= ?X (= ?K 0.0))))
(let (($x289266 (or (not ?L) (and ?M ?N (not ?O)))))
(let (($x144097 (or (not ?L) ?N)))
(let (($x101877 (or (not ?U) (and ?L ?V ?P) (and ?M ?W ?O))))
(let (($x388499 (or (not ?U) (and ?V (not ?W)) (and ?W (not ?V)))))
(let (($x311479 (= ?U true)))
(let (($x396452 (= ?Q (not (<= ?A 10.0)))))
(let (($x441844 (= ?R (= ?C 1.0))))
(let (($x173621 (= ?O (or ?R ?Q))))
(let (($x300880 (= ?S (= ?I 0.0))))
(let (($x268772 (= ?T (= ?G 0.0))))
(let (($x199255 (= ?P (and ?T ?S))))
(let (($x195924 (|cp-rel-bb.i.i.i| ?A ?B ?C ?D ?E ?F ?G ?H ?I ?J ?K)))
(let (($x107314 (and $x195924 $x199255 $x268772 $x300880 $x173621 $x441844 $x396452 (not (= ?X true)) $x311479 $x388499 $x101877 $x144097 $x289266 $x190256)))
(=> $x107314 |cp-rel-bb6.i.i|))))))))))))))))
)
(assert (not cp-rel-bb6.i.i))
(check-sat)
